NAME PortOpt_n10_m4_inst_0
ROWS
 N  OBJ
 E  budget  
 L  return  
 L  uncertain_risk
 L  fixed_risk
COLUMNS
    asset[0]  budget    1
    asset[0]  return    -3.4718395029583262e+00
    asset[1]  budget    1
    asset[1]  return    -2.7190912392031730e+00
    asset[2]  budget    1
    asset[2]  return    -3.5821515081015805e+00
    asset[3]  budget    1
    asset[3]  return    -2.9002765755541668e+00
    asset[4]  budget    1
    asset[4]  return    -1.8900654902488756e+00
    asset[5]  budget    1
    asset[5]  return    -3.6466532348299050e+00
    asset[6]  budget    1
    asset[6]  return    -3.6416249642577752e+00
    asset[7]  budget    1
    asset[7]  return    -4.8709201938848947e+00
    asset[8]  budget    1
    asset[8]  return    -1.9411999594497864e+00
    asset[9]  budget    1
    asset[9]  return    -1.4370786499329515e+00
    return_var  OBJ       -1
    return_var  return    1
    uncertain_risk_var  OBJ       1
    uncertain_risk_var  uncertain_risk  -1
    fixed_risk_var  OBJ       1
    fixed_risk_var  fixed_risk  -1
RHS
    RHS1      budget    1
BOUNDS
QCMATRIX   uncertain_risk
    asset[0]  asset[0]  7.0292553342026415e-02
    asset[0]  asset[1]  -2.1764853101103682e-02
    asset[1]  asset[0]  -2.1764853101103682e-02
    asset[0]  asset[2]  3.7643946707653211e-02
    asset[2]  asset[0]  3.7643946707653211e-02
    asset[0]  asset[3]  4.9794879425419294e-03
    asset[3]  asset[0]  4.9794879425419294e-03
    asset[0]  asset[4]  -9.0108473250685665e-03
    asset[4]  asset[0]  -9.0108473250685665e-03
    asset[0]  asset[5]  3.3654897830432698e-02
    asset[5]  asset[0]  3.3654897830432698e-02
    asset[0]  asset[6]  -3.1654809566356704e-02
    asset[6]  asset[0]  -3.1654809566356704e-02
    asset[0]  asset[7]  -9.3827455479548027e-03
    asset[7]  asset[0]  -9.3827455479548027e-03
    asset[0]  asset[8]  -6.1834761421251966e-02
    asset[8]  asset[0]  -6.1834761421251966e-02
    asset[0]  asset[9]  -1.6692889828712486e-02
    asset[9]  asset[0]  -1.6692889828712486e-02
    asset[1]  asset[1]  1.1357993216119701e-01
    asset[1]  asset[2]  -7.8293166105147721e-02
    asset[2]  asset[1]  -7.8293166105147721e-02
    asset[1]  asset[3]  -8.2138355166374508e-03
    asset[3]  asset[1]  -8.2138355166374508e-03
    asset[1]  asset[4]  2.4569144612501655e-02
    asset[4]  asset[1]  2.4569144612501655e-02
    asset[1]  asset[5]  -8.5365946932695683e-02
    asset[5]  asset[1]  -8.5365946932695683e-02
    asset[1]  asset[6]  -3.5416634923573068e-02
    asset[6]  asset[1]  -3.5416634923573068e-02
    asset[1]  asset[7]  1.8558495479278111e-02
    asset[7]  asset[1]  1.8558495479278111e-02
    asset[1]  asset[8]  7.8617789581845315e-02
    asset[8]  asset[1]  7.8617789581845315e-02
    asset[1]  asset[9]  -4.1313094505227715e-02
    asset[9]  asset[1]  -4.1313094505227715e-02
    asset[2]  asset[2]  6.1856128571753405e-02
    asset[2]  asset[3]  6.5219749594589600e-03
    asset[3]  asset[2]  6.5219749594589600e-03
    asset[2]  asset[4]  -1.8676645063811378e-02
    asset[4]  asset[2]  -1.8676645063811378e-02
    asset[2]  asset[5]  6.5264582995606349e-02
    asset[5]  asset[2]  6.5264582995606349e-02
    asset[2]  asset[6]  1.0636522349618370e-02
    asset[6]  asset[2]  1.0636522349618370e-02
    asset[2]  asset[7]  -1.4678199941952030e-02
    asset[7]  asset[2]  -1.4678199941952030e-02
    asset[2]  asset[8]  -7.0450890055782839e-02
    asset[8]  asset[2]  -7.0450890055782839e-02
    asset[2]  asset[9]  1.9381411563861625e-02
    asset[9]  asset[2]  1.9381411563861625e-02
    asset[3]  asset[3]  1.5699138707197836e-03
    asset[3]  asset[4]  -1.2446249905565896e-03
    asset[4]  asset[3]  -1.2446249905565896e-03
    asset[3]  asset[5]  5.9677135456629874e-03
    asset[5]  asset[3]  5.9677135456629874e-03
    asset[3]  asset[6]  1.9043369230263879e-03
    asset[6]  asset[3]  1.9043369230263879e-03
    asset[3]  asset[7]  -1.5817795468249622e-03
    asset[7]  asset[3]  -1.5817795468249622e-03
    asset[3]  asset[8]  -7.5265173722598010e-03
    asset[8]  asset[3]  -7.5265173722598010e-03
    asset[3]  asset[9]  3.5623942964277738e-03
    asset[9]  asset[3]  3.5623942964277738e-03
    asset[4]  asset[4]  6.3297658736330351e-03
    asset[4]  asset[5]  -2.0529707045180225e-02
    asset[5]  asset[4]  -2.0529707045180225e-02
    asset[4]  asset[6]  -4.0447975220197011e-03
    asset[6]  asset[4]  -4.0447975220197011e-03
    asset[4]  asset[7]  4.6110045065693673e-03
    asset[7]  asset[4]  4.6110045065693673e-03
    asset[4]  asset[8]  2.0552462849374752e-02
    asset[8]  asset[4]  2.0552462849374752e-02
    asset[4]  asset[9]  -5.5590397808061662e-03
    asset[9]  asset[4]  -5.5590397808061662e-03
    asset[5]  asset[5]  7.0539040080818960e-02
    asset[5]  asset[6]  1.4263209601854530e-02
    asset[6]  asset[5]  1.4263209601854530e-02
    asset[5]  asset[7]  -1.4957195839381328e-02
    asset[7]  asset[5]  -1.4957195839381328e-02
    asset[5]  asset[8]  -7.2219289647090401e-02
    asset[8]  asset[5]  -7.2219289647090401e-02
    asset[5]  asset[9]  2.2244596310454143e-02
    asset[9]  asset[5]  2.2244596310454143e-02
    asset[6]  asset[6]  3.6254888951804100e-02
    asset[6]  asset[7]  -3.1287693153188682e-03
    asset[7]  asset[6]  -3.1287693153188682e-03
    asset[6]  asset[8]  3.7786777337692982e-03
    asset[8]  asset[6]  3.7786777337692982e-03
    asset[6]  asset[9]  3.0019313112973810e-02
    asset[9]  asset[6]  3.0019313112973810e-02
    asset[7]  asset[7]  4.5671822945972124e-03
    asset[7]  asset[8]  1.6808111220942355e-02
    asset[8]  asset[7]  1.6808111220942355e-02
    asset[7]  asset[9]  -4.1793214115627255e-03
    asset[9]  asset[7]  -4.1793214115627255e-03
    asset[8]  asset[8]  8.7941580618222243e-02
    asset[8]  asset[9]  -9.9349647616984900e-03
    asset[9]  asset[8]  -9.9349647616984900e-03
    asset[9]  asset[9]  2.8494081340885616e-02
QCMATRIX   fixed_risk
    asset[0]  asset[0]  7.1846037404211544e-03
    asset[1]  asset[1]  1.1081213297261576e-02
    asset[2]  asset[2]  5.6809431076140816e-03
    asset[3]  asset[3]  1.5764784528795857e-04
    asset[4]  asset[4]  6.8138794722069672e-04
    asset[5]  asset[5]  6.6572406024202700e-03
    asset[6]  asset[6]  3.6797436741691802e-03
    asset[7]  asset[7]  4.6868249437783359e-04
    asset[8]  asset[8]  9.2909977122811703e-03
    asset[9]  asset[9]  2.9629068381122059e-03
ENDATA
